9
2147483647 15 30 69 85 81 96 61 64 
15 2147483647 51 33 62 34 15 50 29 
30 51 2147483647 29 49 80 40 99 83 
69 33 29 2147483647 20 50 81 79 11 
85 62 49 20 2147483647 22 61 53 19 
81 34 80 50 22 2147483647 45 51 28 
96 15 40 81 61 45 2147483647 2 66 
61 50 99 79 53 51 2 2147483647 10 
64 29 83 11 19 28 66 10 2147483647 
